
Log started (V12.10.0.0) Fri Apr  2 08:49:55 2021


Problem 'asset.lp' read.
Read time = 0.01 sec. (0.13 ticks)
New value for default parallel thread count: 1
New value for time limit in seconds: 300
Version identifier: 12.10.0.0 | 2019-11-26 | 843d4de
CPXPARAM_Threads                                 1
CPXPARAM_TimeLimit                               300
Found incumbent of value 0.000000 after 0.00 sec. (0.04 ticks)
Tried aggregator 3 times.
MIP Presolve eliminated 245 rows and 77 columns.
MIP Presolve modified 943 coefficients.
Aggregator did 417 substitutions.
Reduced MIP has 552 rows, 675 columns, and 2579 nonzeros.
Reduced MIP has 556 binaries, 89 generals, 0 SOSs, and 0 indicators.
Presolve time = 0.01 sec. (5.97 ticks)
Probing fixed 23 vars, tightened 9 bounds.
Probing time = 0.00 sec. (1.97 ticks)
Cover probing fixed 0 vars, tightened 14 bounds.
Tried aggregator 1 time.
Detecting symmetries...
MIP Presolve eliminated 58 rows and 50 columns.
MIP Presolve modified 286 coefficients.
Reduced MIP has 494 rows, 625 columns, and 2246 nonzeros.
Reduced MIP has 515 binaries, 80 generals, 0 SOSs, and 0 indicators.
Presolve time = 0.00 sec. (2.40 ticks)
Probing time = 0.00 sec. (1.62 ticks)
Clique table members: 1700.
MIP emphasis: balance optimality and feasibility.
MIP search method: dynamic search.
Parallel mode: none, using 1 thread.
Root relaxation solution time = 0.01 sec. (7.78 ticks)

        Nodes                                         Cuts/
   Node  Left     Objective  IInf  Best Integer    Best Bound    ItCnt     Gap

*     0+    0                            0.0000      470.0000              --- 
      0     0      315.2055   125        0.0000      315.2055      491     --- 
      0     0      288.6728   125        0.0000     Cuts: 201      688     --- 
      0     0      282.9317   125        0.0000     Cuts: 187      878     --- 
      0     0      279.7535   125        0.0000     Cuts: 128      999     --- 
      0     0      278.7124   125        0.0000      Cuts: 86     1063     --- 
      0     0      277.1261   125        0.0000     Cuts: 116     1134     --- 
Detecting symmetries...
      0     0      276.2156   125        0.0000      Cuts: 70     1183     --- 
      0     0      275.7409   125        0.0000      Cuts: 80     1242     --- 
      0     0      275.5090   125        0.0000      Cuts: 83     1285     --- 
      0     0      275.1010   125        0.0000      Cuts: 40     1369     --- 
      0     0      274.6646   125        0.0000      Cuts: 70     1429     --- 
      0     0      274.5834   125        0.0000      Cuts: 55     1477     --- 
      0     0      274.3405   125        0.0000      Cuts: 64     1517     --- 
      0     0      273.2710   125        0.0000      Cuts: 54     1563     --- 
      0     0      273.0447   125        0.0000      Cuts: 87     1622     --- 
      0     0      272.3187   125        0.0000      Cuts: 49     1662     --- 
      0     0      271.9483   125        0.0000      Cuts: 47     1700     --- 
      0     0      271.8708   125        0.0000      Cuts: 33     1737     --- 
      0     0      271.8539   125        0.0000      Cuts: 58     1768     --- 
      0     0      271.7729   125        0.0000      Cuts: 34     1829     --- 
      0     0      271.6698   125        0.0000      Cuts: 55     1857     --- 
      0     0      271.6026   125        0.0000      Cuts: 34     1891     --- 
      0     0      271.5788   125        0.0000      Cuts: 35     1906     --- 
*     0+    0                           25.0000      271.5788           986.32%
*     0+    0                           65.0000      271.5788           317.81%
      0     0        cutoff             65.0000      271.5788     1906  317.81%
Detecting symmetries...
      0     2      271.5788   164       65.0000      271.5653     1906  317.79%
Elapsed time = 0.32 sec. (299.86 ticks, tree = 0.01 MB, solutions = 2)
*    20+   20                          170.0000      270.3779            59.05%
*    63    45      integral     0      185.0000      270.3779     4610   46.15%
*    80+   54                          200.0000      270.1725            35.09%
    105    74      233.7537    97      200.0000      269.9382     6440   34.97%
    273   206      253.3252    83      200.0000      267.5166    11957   33.76%
*   400+  256                          210.0000      267.0725            27.18%
    483   316      258.3493   122      210.0000      266.9582    17770   27.12%
    655   446      238.2255    95      210.0000      264.8172    23606   26.10%
    822   553        cutoff            210.0000      263.5267    29375   25.49%
    989   663      235.3144    82      210.0000      262.9111    35643   25.20%

Performing restart 1

Repeating presolve.
Tried aggregator 1 time.
MIP Presolve eliminated 1 rows and 1 columns.
MIP Presolve modified 447 coefficients.
Reduced MIP has 493 rows, 624 columns, and 2009 nonzeros.
Reduced MIP has 514 binaries, 80 generals, 0 SOSs, and 0 indicators.
Presolve time = 0.00 sec. (1.87 ticks)
Tried aggregator 1 time.
Reduced MIP has 493 rows, 624 columns, and 2009 nonzeros.
Reduced MIP has 514 binaries, 80 generals, 0 SOSs, and 0 indicators.
Presolve time = 0.00 sec. (1.52 ticks)
Represolve time = 0.01 sec. (10.55 ticks)
    993     0      250.5918   165      210.0000     Cuts: 181    36701   19.33%
    993     0      240.0954   165      210.0000     Cuts: 158    36928   14.33%
    993     0      237.3203   165      210.0000     Cuts: 160    37078   13.01%
    993     0      234.3027   165      210.0000     Cuts: 143    37221   11.57%
    993     0      232.3709   165      210.0000     Cuts: 120    37341   10.65%
    993     0      231.9639   165      210.0000      Cuts: 97    37437   10.46%
    993     0      231.6040   165      210.0000      Cuts: 88    37509   10.29%
    993     0      230.3338   165      210.0000     Cuts: 135    37614    9.68%
    993     0      229.7123   165      210.0000      Cuts: 81    37752    9.39%
    993     0      229.5735   165      210.0000      Cuts: 87    37812    9.32%
    993     0      229.5328   165      210.0000      Cuts: 51    37844    9.30%
    993     0      229.3588   165      210.0000      Cuts: 36    37908    9.22%
    993     0      229.0001   165      210.0000      Cuts: 68    38012    9.05%
    993     0      228.8063   165      210.0000      Cuts: 83    38090    8.96%
    993     0      228.5729   165      210.0000      Cuts: 81    38199    8.84%
    993     0      228.4484   165      210.0000      Cuts: 81    38255    8.78%
    993     0      228.0624   165      210.0000      Cuts: 52    38309    8.60%
    993     0      227.9253   165      210.0000      Cuts: 37    38376    8.54%
    993     0      227.8456   165      210.0000      Cuts: 55    38416    8.50%
    993     0      227.7467   165      210.0000      Cuts: 81    38454    8.45%
    993     0      227.6624   165      210.0000      Cuts: 35    38490    8.41%
    993     0      227.4080   165      210.0000      Cuts: 48    38519    8.29%
    993     0      227.2252   165      210.0000      Cuts: 24    38568    8.20%
    993     0      227.1251   165      210.0000      Cuts: 64    38620    8.15%
    993     0      227.0865   165      210.0000      Cuts: 75    38657    8.14%
    993     0      226.8666   165      210.0000      Cuts: 52    38762    8.03%
    993     0      226.7849   165      210.0000      Cuts: 75    38799    7.99%
    993     0      226.7478   165      210.0000      Cuts: 18    38837    7.98%
    993     0      226.6740   165      210.0000      Cuts: 45    38879    7.94%
    993     0      226.6662   165      210.0000      Cuts: 52    38911    7.94%
    993     0      226.6644   165      210.0000      Cuts: 29    38933    7.94%
    993     0      226.6481   165      210.0000      Cuts: 39    38967    7.93%
    993     2      226.6470   107      210.0000      226.6463    38967    7.93%
   1000     7      225.6818    78      210.0000      226.5620    39588    7.89%
*  1023+   11                          215.0000      225.2714             4.78%
   1029    10        cutoff            215.0000      224.6429    40508    4.49%

GUB cover cuts applied:  2
Clique cuts applied:  61
Cover cuts applied:  6
Implied bound cuts applied:  22
Flow cuts applied:  8
Mixed integer rounding cuts applied:  58
Zero-half cuts applied:  39
Lift and project cuts applied:  6
Gomory fractional cuts applied:  3

Root node processing (before b&c):
  Real time             =    0.32 sec. (299.92 ticks)
Sequential b&c:
  Real time             =    3.18 sec. (3417.35 ticks)
                          ------------
Total (root+branch&cut) =    3.50 sec. (3717.27 ticks)

Solution pool: 8 solutions saved.

MIP - Integer optimal solution:  Objective =  2.1500000000e+02
Solution time =    3.50 sec.  Iterations = 41142  Nodes = 1041
Deterministic time = 3717.27 ticks  (1062.16 ticks/sec)


Incumbent solution
Variable Name           Solution Value
F                           215.000000
y106                          1.000000
y300                          1.000000
y224                          1.000000
y81                           1.000000
y213                          1.000000
y262                          1.000000
y210                          1.000000
y178                          1.000000
y172                          1.000000
y23                           1.000000
y261                          1.000000
y195                          1.000000
y48                           1.000000
y9                            1.000000
x194x224x1                    1.000000
x272x48x1                     1.000000
x240x23x1                     1.000000
x128x213x1                    2.000000
x243x300x1                    1.000000
x298x195x2                    2.000000
x276x178x2                    1.000000
x276x261x2                    1.000000
x243x300x2                    1.000000
x113x106x2                    1.000000
x217x106x2                    1.000000
x293x262x3                    1.000000
x293x178x3                    1.000000
x125x9x3                      2.000000
x196x48x3                     1.000000
x113x81x3                     1.000000
x217x81x3                     1.000000
x106x224x2                    1.000000
x106x262x2                    1.000000
x300x261x1                    1.000000
x300x172x2                    1.000000
x224x0x1                      1.000000
x224x0x2                      1.000000
x81x210x3                     1.000000
x81x172x3                     1.000000
x213x210x1                    1.000000
x213x23x1                     1.000000
x262x0x2                      1.000000
x262x0x3                      1.000000
x210x0x1                      1.000000
x210x0x3                      1.000000
x178x0x2                      1.000000
x178x0x3                      1.000000
x172x0x2                      1.000000
x172x0x3                      1.000000
x23x0x1                       2.000000
x261x0x1                      1.000000
x261x0x2                      1.000000
x195x0x2                      2.000000
x48x0x1                       1.000000
x48x0x3                       1.000000
x9x0x3                        2.000000
s194                          6.769889
s110                          7.170000
s39                           7.200000
s141                          7.250000
s300                          7.728590
s193                          7.360000
s166                          7.380000
s187                          7.420000
s96                           7.606198
s224                          8.490000
z194z224z1                    1.000000
s49                           7.590000
s165                          7.620000
s213                          7.680000
s287                          8.930000
s210                          9.060000
s50                           9.130000
s21                           9.160000
s101                          9.260000
z194z101z1                    1.000000
s23                           9.280000
z194z23z1                     1.000000
s261                          9.300000
s42                           9.340000
s48                           9.460000
s293                          7.320888
s95                           7.850000
s262                          9.040000
z293z262z3                    1.000000
s178                          8.548541
z293z178z3                    1.000000
s172                          9.190000
s231                          9.250000
z293z231z3                    1.000000
s156                          9.330000
s9                            9.470000
z293z9z3                      1.000000
s109                          9.470000
z293z109z3                    1.000000
s125                          7.790034
z125z9z3                      1.000000
z125z109z3                    1.000000
s196                          7.875002
z196z48z3                     1.000000
s272                          7.877593
z272z48z1                     1.000000
s240                          7.960793
z240z23z1                     1.000000
s298                          7.835634
s195                          9.310000
z298z195z2                    1.000000
s276                          7.268637
z276z178z2                    1.000000
z276z261z2                    1.000000
z276z195z2                    1.000000
s85                           8.047811
s284                          8.126202
s128                          5.799270
s80                           7.180000
z128z193z1                    1.000000
z128z166z1                    1.000000
z128z96z1                     1.000000
z128z49z1                     1.000000
z128z213z1                    1.000000
z128z287z1                    1.000000
z128z50z1                     1.000000
z128z101z1                    1.000000
z128z23z1                     1.000000
s243                          5.988770
s220                          7.170000
s106                          7.290000
z243z300z1                    1.000000
z243z300z2                    1.000000
s20                           7.330000
s248                          7.330000
s103                          7.430000
s84                           7.560000
s301                          7.580000
z243z49z1                     1.000000
s114                          8.588886
z243z287z1                    1.000000
z243z50z1                     1.000000
z243z101z1                    1.000000
z243z23z1                     1.000000
z243z195z2                    1.000000
s113                          5.980480
z113z106z2                    1.000000
z113z20z2                     1.000000
s81                           7.650952
z113z81z3                     1.000000
z113z114z2                    1.000000
z113z231z3                    1.000000
z113z195z2                    1.000000
z113z9z3                      1.000000
z113z109z3                    1.000000
s217                          5.960000
z217z106z2                    1.000000
z217z20z2                     1.000000
z217z81z3                     1.000000
z217z114z2                    1.000000
z217z231z3                    1.000000
z217z195z2                    1.000000
z217z9z3                      1.000000
z217z109z3                    1.000000
z220z195z2                    1.000000
z80z101z1                     1.000000
z80z23z1                      1.000000
z106z224z2                    1.000000
z106z114z2                    1.000000
z106z262z2                    1.000000
z106z195z2                    1.000000
z300z172z2                    1.000000
z300z261z1                    1.000000
z20z114z2                     1.000000
z103z195z2                    1.000000
z81z210z3                     1.000000
z81z172z3                     1.000000
z81z231z3                     1.000000
z81z9z3                       1.000000
z81z109z3                     1.000000
z213z287z1                    1.000000
z213z210z1                    1.000000
z213z101z1                    1.000000
z213z23z1                     1.000000
All other variables in the range 1-1175 are 0.
